c Standarized MaxSat Instance
c{
c "sha1sum": "6155fadbc48b066137bd747f5031516032fde65d",
c "nvars": 60,
c "ncls": 1120,
c "nhards": 0,
c "nhard_len_stats":
c    { "min": 0, "max": 0, "ave": 0.00,
c      "stddev": 0.00 },
c "nsofts": 1120,
c "nsoft_len_stats":
c    { "min": 2, "max": 2, "ave": 2.00,
c      "stddev": 0.00 },
c "nsoft_wts": 10,
c "soft_wt_stats":
c    { "min": 1, "max": 10, "ave": 5.65,
c      "stddev": 2.81 }
c}
c------------------------------------------------------------
c Generated after 1 tries
c Graph with 60 nodes and 560 edges, Max edges:1770
p wcnf 60 1120 6331
9 1 3 0
9 -1 -3 0
4 1 7 0
4 -1 -7 0
8 1 8 0
8 -1 -8 0
8 1 11 0
8 -1 -11 0
10 1 13 0
10 -1 -13 0
2 1 19 0
2 -1 -19 0
4 1 22 0
4 -1 -22 0
8 1 24 0
8 -1 -24 0
3 1 26 0
3 -1 -26 0
6 1 27 0
6 -1 -27 0
5 1 30 0
5 -1 -30 0
7 1 39 0
7 -1 -39 0
4 1 41 0
4 -1 -41 0
6 1 50 0
6 -1 -50 0
10 1 51 0
10 -1 -51 0
10 1 52 0
10 -1 -52 0
7 1 54 0
7 -1 -54 0
8 1 55 0
8 -1 -55 0
2 1 57 0
2 -1 -57 0
7 2 6 0
7 -2 -6 0
1 2 12 0
1 -2 -12 0
3 2 17 0
3 -2 -17 0
2 2 19 0
2 -2 -19 0
9 2 24 0
9 -2 -24 0
2 2 25 0
2 -2 -25 0
5 2 31 0
5 -2 -31 0
2 2 33 0
2 -2 -33 0
2 2 34 0
2 -2 -34 0
10 2 35 0
10 -2 -35 0
3 2 38 0
3 -2 -38 0
6 2 47 0
6 -2 -47 0
9 2 50 0
9 -2 -50 0
7 2 52 0
7 -2 -52 0
3 2 58 0
3 -2 -58 0
7 2 60 0
7 -2 -60 0
6 3 6 0
6 -3 -6 0
5 3 9 0
5 -3 -9 0
10 3 12 0
10 -3 -12 0
3 3 13 0
3 -3 -13 0
8 3 14 0
8 -3 -14 0
6 3 15 0
6 -3 -15 0
8 3 18 0
8 -3 -18 0
5 3 20 0
5 -3 -20 0
9 3 21 0
9 -3 -21 0
3 3 24 0
3 -3 -24 0
4 3 26 0
4 -3 -26 0
9 3 30 0
9 -3 -30 0
10 3 32 0
10 -3 -32 0
1 3 35 0
1 -3 -35 0
10 3 36 0
10 -3 -36 0
6 3 37 0
6 -3 -37 0
1 3 39 0
1 -3 -39 0
2 3 40 0
2 -3 -40 0
7 3 44 0
7 -3 -44 0
9 3 55 0
9 -3 -55 0
4 3 59 0
4 -3 -59 0
1 4 11 0
1 -4 -11 0
1 4 12 0
1 -4 -12 0
5 4 13 0
5 -4 -13 0
1 4 19 0
1 -4 -19 0
3 4 21 0
3 -4 -21 0
10 4 24 0
10 -4 -24 0
10 4 26 0
10 -4 -26 0
9 4 28 0
9 -4 -28 0
3 4 29 0
3 -4 -29 0
6 4 32 0
6 -4 -32 0
4 4 36 0
4 -4 -36 0
8 4 40 0
8 -4 -40 0
6 4 42 0
6 -4 -42 0
7 4 43 0
7 -4 -43 0
6 4 45 0
6 -4 -45 0
1 4 48 0
1 -4 -48 0
5 4 50 0
5 -4 -50 0
10 4 51 0
10 -4 -51 0
10 4 52 0
10 -4 -52 0
8 4 53 0
8 -4 -53 0
3 4 55 0
3 -4 -55 0
8 4 60 0
8 -4 -60 0
7 5 6 0
7 -5 -6 0
4 5 7 0
4 -5 -7 0
7 5 9 0
7 -5 -9 0
2 5 11 0
2 -5 -11 0
5 5 15 0
5 -5 -15 0
9 5 18 0
9 -5 -18 0
9 5 20 0
9 -5 -20 0
4 5 21 0
4 -5 -21 0
3 5 26 0
3 -5 -26 0
9 5 31 0
9 -5 -31 0
4 5 33 0
4 -5 -33 0
7 5 34 0
7 -5 -34 0
10 5 41 0
10 -5 -41 0
6 5 44 0
6 -5 -44 0
7 5 45 0
7 -5 -45 0
9 5 52 0
9 -5 -52 0
5 5 56 0
5 -5 -56 0
10 6 7 0
10 -6 -7 0
4 6 9 0
4 -6 -9 0
9 6 12 0
9 -6 -12 0
7 6 14 0
7 -6 -14 0
10 6 15 0
10 -6 -15 0
5 6 18 0
5 -6 -18 0
3 6 19 0
3 -6 -19 0
10 6 33 0
10 -6 -33 0
10 6 36 0
10 -6 -36 0
2 6 39 0
2 -6 -39 0
9 6 40 0
9 -6 -40 0
7 6 43 0
7 -6 -43 0
5 6 44 0
5 -6 -44 0
7 6 47 0
7 -6 -47 0
3 6 48 0
3 -6 -48 0
8 6 49 0
8 -6 -49 0
4 6 51 0
4 -6 -51 0
5 6 52 0
5 -6 -52 0
3 6 53 0
3 -6 -53 0
2 6 54 0
2 -6 -54 0
3 6 59 0
3 -6 -59 0
6 7 11 0
6 -7 -11 0
5 7 18 0
5 -7 -18 0
2 7 19 0
2 -7 -19 0
10 7 28 0
10 -7 -28 0
2 7 31 0
2 -7 -31 0
2 7 32 0
2 -7 -32 0
5 7 35 0
5 -7 -35 0
8 7 43 0
8 -7 -43 0
10 7 45 0
10 -7 -45 0
10 7 48 0
10 -7 -48 0
7 7 50 0
7 -7 -50 0
4 7 53 0
4 -7 -53 0
8 7 55 0
8 -7 -55 0
4 7 59 0
4 -7 -59 0
3 7 60 0
3 -7 -60 0
3 8 9 0
3 -8 -9 0
6 8 10 0
6 -8 -10 0
3 8 17 0
3 -8 -17 0
2 8 21 0
2 -8 -21 0
8 8 22 0
8 -8 -22 0
2 8 23 0
2 -8 -23 0
8 8 27 0
8 -8 -27 0
2 8 28 0
2 -8 -28 0
8 8 29 0
8 -8 -29 0
1 8 30 0
1 -8 -30 0
10 8 39 0
10 -8 -39 0
1 8 40 0
1 -8 -40 0
6 8 44 0
6 -8 -44 0
2 8 48 0
2 -8 -48 0
3 8 53 0
3 -8 -53 0
8 8 55 0
8 -8 -55 0
8 9 14 0
8 -9 -14 0
7 9 15 0
7 -9 -15 0
10 9 19 0
10 -9 -19 0
7 9 23 0
7 -9 -23 0
8 9 24 0
8 -9 -24 0
1 9 27 0
1 -9 -27 0
2 9 29 0
2 -9 -29 0
6 9 36 0
6 -9 -36 0
1 9 39 0
1 -9 -39 0
1 9 40 0
1 -9 -40 0
3 9 43 0
3 -9 -43 0
5 9 45 0
5 -9 -45 0
9 9 47 0
9 -9 -47 0
6 9 51 0
6 -9 -51 0
8 9 54 0
8 -9 -54 0
1 9 55 0
1 -9 -55 0
2 9 57 0
2 -9 -57 0
10 10 11 0
10 -10 -11 0
3 10 12 0
3 -10 -12 0
9 10 19 0
9 -10 -19 0
2 10 22 0
2 -10 -22 0
10 10 29 0
10 -10 -29 0
1 10 32 0
1 -10 -32 0
9 10 37 0
9 -10 -37 0
1 10 38 0
1 -10 -38 0
1 10 39 0
1 -10 -39 0
10 10 41 0
10 -10 -41 0
6 10 44 0
6 -10 -44 0
2 10 46 0
2 -10 -46 0
2 10 48 0
2 -10 -48 0
4 10 55 0
4 -10 -55 0
10 10 57 0
10 -10 -57 0
9 10 58 0
9 -10 -58 0
4 10 59 0
4 -10 -59 0
6 10 60 0
6 -10 -60 0
6 11 13 0
6 -11 -13 0
5 11 17 0
5 -11 -17 0
7 11 18 0
7 -11 -18 0
1 11 20 0
1 -11 -20 0
6 11 21 0
6 -11 -21 0
8 11 23 0
8 -11 -23 0
4 11 24 0
4 -11 -24 0
10 11 26 0
10 -11 -26 0
6 11 27 0
6 -11 -27 0
9 11 33 0
9 -11 -33 0
8 11 36 0
8 -11 -36 0
7 11 47 0
7 -11 -47 0
1 11 49 0
1 -11 -49 0
8 11 51 0
8 -11 -51 0
9 11 58 0
9 -11 -58 0
10 12 14 0
10 -12 -14 0
9 12 16 0
9 -12 -16 0
9 12 18 0
9 -12 -18 0
10 12 24 0
10 -12 -24 0
8 12 27 0
8 -12 -27 0
10 12 28 0
10 -12 -28 0
10 12 31 0
10 -12 -31 0
7 12 34 0
7 -12 -34 0
5 12 41 0
5 -12 -41 0
2 12 49 0
2 -12 -49 0
9 12 50 0
9 -12 -50 0
9 12 52 0
9 -12 -52 0
1 12 55 0
1 -12 -55 0
7 12 56 0
7 -12 -56 0
3 12 57 0
3 -12 -57 0
7 13 15 0
7 -13 -15 0
3 13 19 0
3 -13 -19 0
8 13 21 0
8 -13 -21 0
4 13 23 0
4 -13 -23 0
4 13 25 0
4 -13 -25 0
3 13 28 0
3 -13 -28 0
1 13 34 0
1 -13 -34 0
7 13 40 0
7 -13 -40 0
3 13 46 0
3 -13 -46 0
7 13 48 0
7 -13 -48 0
6 13 49 0
6 -13 -49 0
10 13 50 0
10 -13 -50 0
3 13 52 0
3 -13 -52 0
6 13 56 0
6 -13 -56 0
8 13 60 0
8 -13 -60 0
2 14 16 0
2 -14 -16 0
5 14 22 0
5 -14 -22 0
6 14 23 0
6 -14 -23 0
10 14 25 0
10 -14 -25 0
5 14 26 0
5 -14 -26 0
4 14 27 0
4 -14 -27 0
9 14 28 0
9 -14 -28 0
5 14 36 0
5 -14 -36 0
1 14 38 0
1 -14 -38 0
4 14 43 0
4 -14 -43 0
6 14 45 0
6 -14 -45 0
9 14 49 0
9 -14 -49 0
3 14 57 0
3 -14 -57 0
7 14 59 0
7 -14 -59 0
5 15 23 0
5 -15 -23 0
5 15 25 0
5 -15 -25 0
4 15 28 0
4 -15 -28 0
8 15 29 0
8 -15 -29 0
2 15 34 0
2 -15 -34 0
7 15 36 0
7 -15 -36 0
1 15 37 0
1 -15 -37 0
5 15 39 0
5 -15 -39 0
7 15 41 0
7 -15 -41 0
7 15 42 0
7 -15 -42 0
7 15 43 0
7 -15 -43 0
4 15 44 0
4 -15 -44 0
2 15 46 0
2 -15 -46 0
7 15 47 0
7 -15 -47 0
7 15 49 0
7 -15 -49 0
8 15 54 0
8 -15 -54 0
4 15 58 0
4 -15 -58 0
8 16 17 0
8 -16 -17 0
3 16 18 0
3 -16 -18 0
10 16 19 0
10 -16 -19 0
7 16 20 0
7 -16 -20 0
7 16 21 0
7 -16 -21 0
3 16 22 0
3 -16 -22 0
6 16 24 0
6 -16 -24 0
1 16 26 0
1 -16 -26 0
3 16 27 0
3 -16 -27 0
9 16 30 0
9 -16 -30 0
7 16 32 0
7 -16 -32 0
1 16 36 0
1 -16 -36 0
2 16 44 0
2 -16 -44 0
4 16 45 0
4 -16 -45 0
6 16 53 0
6 -16 -53 0
6 16 54 0
6 -16 -54 0
7 16 55 0
7 -16 -55 0
3 16 58 0
3 -16 -58 0
8 16 59 0
8 -16 -59 0
3 17 19 0
3 -17 -19 0
4 17 20 0
4 -17 -20 0
2 17 22 0
2 -17 -22 0
10 17 27 0
10 -17 -27 0
1 17 36 0
1 -17 -36 0
9 17 39 0
9 -17 -39 0
4 17 40 0
4 -17 -40 0
2 17 55 0
2 -17 -55 0
5 17 56 0
5 -17 -56 0
10 17 58 0
10 -17 -58 0
10 17 60 0
10 -17 -60 0
8 18 28 0
8 -18 -28 0
7 18 32 0
7 -18 -32 0
2 18 34 0
2 -18 -34 0
7 18 44 0
7 -18 -44 0
4 18 48 0
4 -18 -48 0
8 18 52 0
8 -18 -52 0
10 18 54 0
10 -18 -54 0
10 18 57 0
10 -18 -57 0
9 18 59 0
9 -18 -59 0
3 19 21 0
3 -19 -21 0
8 19 23 0
8 -19 -23 0
6 19 25 0
6 -19 -25 0
3 19 27 0
3 -19 -27 0
10 19 28 0
10 -19 -28 0
10 19 34 0
10 -19 -34 0
9 19 38 0
9 -19 -38 0
5 19 41 0
5 -19 -41 0
6 19 43 0
6 -19 -43 0
2 19 48 0
2 -19 -48 0
3 19 58 0
3 -19 -58 0
9 20 24 0
9 -20 -24 0
5 20 28 0
5 -20 -28 0
5 20 29 0
5 -20 -29 0
9 20 31 0
9 -20 -31 0
5 20 37 0
5 -20 -37 0
3 20 48 0
3 -20 -48 0
2 20 49 0
2 -20 -49 0
7 20 51 0
7 -20 -51 0
8 20 55 0
8 -20 -55 0
2 20 58 0
2 -20 -58 0
7 20 59 0
7 -20 -59 0
5 21 22 0
5 -21 -22 0
9 21 28 0
9 -21 -28 0
8 21 30 0
8 -21 -30 0
2 21 31 0
2 -21 -31 0
3 21 33 0
3 -21 -33 0
5 21 37 0
5 -21 -37 0
2 21 44 0
2 -21 -44 0
2 21 47 0
2 -21 -47 0
4 21 48 0
4 -21 -48 0
4 21 55 0
4 -21 -55 0
10 22 27 0
10 -22 -27 0
10 22 31 0
10 -22 -31 0
7 22 32 0
7 -22 -32 0
9 22 40 0
9 -22 -40 0
9 22 48 0
9 -22 -48 0
5 22 49 0
5 -22 -49 0
4 22 57 0
4 -22 -57 0
4 22 58 0
4 -22 -58 0
7 22 60 0
7 -22 -60 0
7 23 29 0
7 -23 -29 0
3 23 33 0
3 -23 -33 0
2 23 34 0
2 -23 -34 0
1 23 36 0
1 -23 -36 0
2 23 38 0
2 -23 -38 0
7 23 39 0
7 -23 -39 0
4 23 40 0
4 -23 -40 0
3 23 43 0
3 -23 -43 0
4 23 50 0
4 -23 -50 0
1 23 53 0
1 -23 -53 0
5 23 54 0
5 -23 -54 0
10 23 55 0
10 -23 -55 0
6 23 56 0
6 -23 -56 0
3 23 57 0
3 -23 -57 0
7 23 60 0
7 -23 -60 0
8 24 27 0
8 -24 -27 0
5 24 28 0
5 -24 -28 0
2 24 29 0
2 -24 -29 0
9 24 31 0
9 -24 -31 0
7 24 32 0
7 -24 -32 0
6 24 36 0
6 -24 -36 0
3 24 42 0
3 -24 -42 0
6 24 43 0
6 -24 -43 0
5 24 44 0
5 -24 -44 0
9 24 45 0
9 -24 -45 0
4 24 51 0
4 -24 -51 0
3 24 54 0
3 -24 -54 0
4 24 59 0
4 -24 -59 0
8 25 31 0
8 -25 -31 0
7 25 35 0
7 -25 -35 0
10 25 39 0
10 -25 -39 0
4 25 40 0
4 -25 -40 0
9 25 41 0
9 -25 -41 0
2 25 42 0
2 -25 -42 0
5 25 43 0
5 -25 -43 0
1 25 44 0
1 -25 -44 0
8 25 46 0
8 -25 -46 0
8 25 47 0
8 -25 -47 0
3 25 49 0
3 -25 -49 0
2 25 51 0
2 -25 -51 0
9 25 57 0
9 -25 -57 0
8 25 58 0
8 -25 -58 0
1 26 27 0
1 -26 -27 0
5 26 32 0
5 -26 -32 0
10 26 34 0
10 -26 -34 0
8 26 39 0
8 -26 -39 0
3 26 41 0
3 -26 -41 0
5 26 42 0
5 -26 -42 0
9 26 46 0
9 -26 -46 0
1 26 53 0
1 -26 -53 0
1 26 55 0
1 -26 -55 0
4 26 57 0
4 -26 -57 0
4 26 60 0
4 -26 -60 0
7 27 36 0
7 -27 -36 0
9 27 37 0
9 -27 -37 0
2 27 39 0
2 -27 -39 0
1 27 42 0
1 -27 -42 0
1 27 44 0
1 -27 -44 0
5 27 48 0
5 -27 -48 0
8 27 49 0
8 -27 -49 0
7 27 50 0
7 -27 -50 0
5 27 55 0
5 -27 -55 0
2 27 56 0
2 -27 -56 0
6 27 57 0
6 -27 -57 0
6 27 58 0
6 -27 -58 0
6 27 59 0
6 -27 -59 0
6 27 60 0
6 -27 -60 0
4 28 30 0
4 -28 -30 0
4 28 34 0
4 -28 -34 0
9 28 39 0
9 -28 -39 0
5 28 42 0
5 -28 -42 0
2 28 45 0
2 -28 -45 0
7 28 47 0
7 -28 -47 0
6 28 51 0
6 -28 -51 0
7 28 54 0
7 -28 -54 0
6 28 57 0
6 -28 -57 0
3 29 34 0
3 -29 -34 0
9 29 37 0
9 -29 -37 0
1 29 54 0
1 -29 -54 0
1 30 47 0
1 -30 -47 0
10 30 53 0
10 -30 -53 0
2 30 55 0
2 -30 -55 0
5 30 59 0
5 -30 -59 0
3 31 34 0
3 -31 -34 0
9 31 35 0
9 -31 -35 0
3 31 38 0
3 -31 -38 0
4 31 40 0
4 -31 -40 0
9 31 47 0
9 -31 -47 0
4 31 53 0
4 -31 -53 0
9 31 54 0
9 -31 -54 0
7 31 55 0
7 -31 -55 0
1 31 60 0
1 -31 -60 0
3 32 33 0
3 -32 -33 0
8 32 35 0
8 -32 -35 0
7 32 36 0
7 -32 -36 0
9 32 40 0
9 -32 -40 0
4 32 45 0
4 -32 -45 0
3 32 48 0
3 -32 -48 0
2 32 49 0
2 -32 -49 0
7 32 51 0
7 -32 -51 0
2 32 52 0
2 -32 -52 0
7 32 55 0
7 -32 -55 0
8 32 57 0
8 -32 -57 0
8 33 38 0
8 -33 -38 0
3 33 39 0
3 -33 -39 0
5 33 42 0
5 -33 -42 0
4 33 46 0
4 -33 -46 0
5 33 52 0
5 -33 -52 0
3 33 54 0
3 -33 -54 0
4 33 55 0
4 -33 -55 0
6 33 56 0
6 -33 -56 0
2 34 35 0
2 -34 -35 0
6 34 37 0
6 -34 -37 0
1 34 38 0
1 -34 -38 0
4 34 41 0
4 -34 -41 0
4 34 44 0
4 -34 -44 0
4 34 59 0
4 -34 -59 0
8 35 36 0
8 -35 -36 0
3 35 39 0
3 -35 -39 0
7 35 40 0
7 -35 -40 0
6 35 42 0
6 -35 -42 0
10 35 43 0
10 -35 -43 0
7 35 44 0
7 -35 -44 0
9 35 45 0
9 -35 -45 0
7 35 46 0
7 -35 -46 0
4 35 52 0
4 -35 -52 0
7 35 53 0
7 -35 -53 0
1 35 55 0
1 -35 -55 0
6 35 56 0
6 -35 -56 0
9 36 41 0
9 -36 -41 0
7 36 43 0
7 -36 -43 0
7 36 44 0
7 -36 -44 0
6 36 49 0
6 -36 -49 0
5 36 52 0
5 -36 -52 0
4 36 54 0
4 -36 -54 0
8 36 57 0
8 -36 -57 0
9 36 58 0
9 -36 -58 0
7 36 59 0
7 -36 -59 0
2 37 45 0
2 -37 -45 0
1 37 46 0
1 -37 -46 0
1 37 47 0
1 -37 -47 0
7 37 50 0
7 -37 -50 0
2 37 52 0
2 -37 -52 0
7 37 55 0
7 -37 -55 0
8 37 57 0
8 -37 -57 0
6 37 58 0
6 -37 -58 0
1 38 44 0
1 -38 -44 0
1 38 46 0
1 -38 -46 0
4 38 48 0
4 -38 -48 0
3 38 51 0
3 -38 -51 0
7 38 55 0
7 -38 -55 0
9 38 57 0
9 -38 -57 0
2 38 59 0
2 -38 -59 0
4 39 41 0
4 -39 -41 0
7 39 42 0
7 -39 -42 0
9 39 44 0
9 -39 -44 0
7 39 45 0
7 -39 -45 0
4 39 46 0
4 -39 -46 0
9 39 48 0
9 -39 -48 0
2 39 51 0
2 -39 -51 0
2 39 54 0
2 -39 -54 0
6 40 42 0
6 -40 -42 0
9 40 43 0
9 -40 -43 0
7 40 45 0
7 -40 -45 0
10 40 50 0
10 -40 -50 0
2 40 53 0
2 -40 -53 0
4 41 42 0
4 -41 -42 0
8 41 50 0
8 -41 -50 0
9 41 51 0
9 -41 -51 0
6 41 54 0
6 -41 -54 0
8 41 55 0
8 -41 -55 0
10 41 57 0
10 -41 -57 0
3 42 46 0
3 -42 -46 0
10 42 54 0
10 -42 -54 0
6 42 58 0
6 -42 -58 0
10 42 59 0
10 -42 -59 0
5 42 60 0
5 -42 -60 0
6 43 47 0
6 -43 -47 0
10 43 49 0
10 -43 -49 0
8 43 60 0
8 -43 -60 0
9 44 45 0
9 -44 -45 0
6 44 48 0
6 -44 -48 0
7 44 51 0
7 -44 -51 0
10 44 52 0
10 -44 -52 0
10 44 54 0
10 -44 -54 0
4 44 55 0
4 -44 -55 0
9 44 58 0
9 -44 -58 0
6 45 52 0
6 -45 -52 0
7 45 56 0
7 -45 -56 0
8 46 51 0
8 -46 -51 0
8 46 52 0
8 -46 -52 0
8 47 48 0
8 -47 -48 0
3 47 52 0
3 -47 -52 0
7 47 53 0
7 -47 -53 0
5 47 54 0
5 -47 -54 0
2 47 57 0
2 -47 -57 0
8 47 60 0
8 -47 -60 0
9 48 54 0
9 -48 -54 0
9 48 55 0
9 -48 -55 0
7 48 56 0
7 -48 -56 0
5 48 59 0
5 -48 -59 0
7 48 60 0
7 -48 -60 0
6 49 50 0
6 -49 -50 0
7 49 52 0
7 -49 -52 0
6 49 58 0
6 -49 -58 0
2 50 51 0
2 -50 -51 0
6 50 53 0
6 -50 -53 0
1 50 54 0
1 -50 -54 0
8 50 56 0
8 -50 -56 0
6 51 53 0
6 -51 -53 0
9 51 57 0
9 -51 -57 0
6 51 58 0
6 -51 -58 0
2 52 56 0
2 -52 -56 0
5 53 54 0
5 -53 -54 0
6 53 57 0
6 -53 -57 0
1 53 58 0
1 -53 -58 0
9 54 55 0
9 -54 -55 0
4 54 59 0
4 -54 -59 0
7 55 57 0
7 -55 -57 0
5 55 58 0
5 -55 -58 0
2 57 59 0
2 -57 -59 0
5 59 60 0
5 -59 -60 0
